NAME: rue_25_8
TYPE: TSP
DIMENSION: 25
EDGE_WEIGHT_TYPE: EUC_2D
NODE_COORD_SECTION
1 32 25
2 18 37
3 24 19
4 32 33
5 4 3
6 14 17
7 29 38
8 32 40
9 26 31
10 28 3
11 15 23
12 29 38
13 13 13
14 36 16
15 31 17
16 33 21
17 35 38
18 40 28
19 38 23
20 17 5
21 32 39
22 11 39
23 21 36
24 26 34
25 33 21

